LOCATIONS = { "loc1", "loc2", "loc3", "loc4", "loc5" };
AREAS = { "area1", "area2", "area3", "area4", "area5", "area6", "area7", "area8", "area9" };

N = 5;
A = 9;

opening_cost = [ 5, 2, 12, 6, 20 ];

capacity = [ 2, 3, 5, 3, 8 ];


connection_cost = [ [ 1, 2, 0.7, 1.2, 0.8 ], [ 1, 2, 0.7, 1.2, 0.8 ], [ 1, 2, 0.7, 1.2, 0.8 ], 
					[ 1, 2, 0.7, 1.2, 0.8 ], [ 1, 2, 0.7, 1.2, 0.8 ], [ 1, 2, 0.7, 1.2, 0.8 ], 
					[ 1, 2, 0.7, 1.2, 0.8 ], [ 1, 2, 0.7, 1.2, 0.8 ], [ 1, 2, 0.7, 1.2, 0.8 ] ];